
Gurobi 10.0.1 (linux64) logging started Sun Nov 26 15:39:45 2023

Set parameter LogFile to value "ArtificialInstance/ExperimentV2/S2T3K1/BaSp/gurobi91.txt"
Gurobi Optimizer version 10.0.1 build v10.0.1rc0 (linux64)

CPU model: AMD EPYC 7H12 64-Core Processor, instruction set [SSE2|AVX|AVX2]
Thread count: 128 physical cores, 128 logical processors, using up to 32 threads

Academic license 656792 - for non-commercial use only - registered to b.___@student.vu.nl
Optimize a model with 790 rows, 1200 columns and 3680 nonzeros
Model fingerprint: 0x5b5bcb1f
Variable types: 0 continuous, 1200 integer (1200 binary)
Coefficient statistics:
  Matrix range     [1e+00, 1e+00]
  Objective range  [2e+00, 2e+01]
  Bounds range     [1e+00, 1e+00]
  RHS range        [1e+00, 1e+00]
Found heuristic solution: objective 641.0328958
Presolve time: 0.01s
Presolved: 790 rows, 1200 columns, 3680 nonzeros
Variable types: 0 continuous, 1200 integer (1200 binary)

Root relaxation: objective 2.585166e+01, 497 iterations, 0.01 seconds (0.00 work units)

    Nodes    |    Current Node    |     Objective Bounds      |     Work
 Expl Unexpl |  Obj  Depth IntInf | Incumbent    BestBd   Gap | It/Node Time

     0     0   25.85166    0   36  641.03290   25.85166  96.0%     -    0s
H    0     0                      26.2390574   25.85166  1.48%     -    0s

Cutting planes:
  Gomory: 2
  Zero half: 8

Explored 1 nodes (796 simplex iterations) in 0.03 seconds (0.02 work units)
Thread count was 32 (of 128 available processors)

Solution count 2: 26.2391 641.033 

Optimal solution found (tolerance 1.00e-04)
Best objective 2.623905743784e+01, best bound 2.623905743784e+01, gap 0.0000%
